61 74 
37 9 
44 84 
68 35 
22 63 
98 6 
4 34 
12 84 
89 24 
53 38 
23 55 
60 89 
32 57 
59 64 
92 58 
68 6 
84 6 
67 81 
42 35 
16 64 
51 66 
71 55 
0 35 
39 41 
59 44 
79 34 
99 92 
23 32 
49 35 
48 93 
93 68 
99 78 
26 18 
11 68 
6 27 
85 57 
45 56 
12 45 
43 51 
38 54 
96 69 
88 47 
61 11 
31 62 
46 31 
8 92 
0 59 
22 78 
78 33 
47 84 
